certificates/rado_a13_c240_N48.cnf
c Rad2 upper bound instance: x1 + 13*x2 - x3 = 240, interval [1,48]
p cnf 48 350
1 8 19 0
-1 -8 -19 0
1 20 21 0
-1 -20 -21 0
1 21 34 0
-1 -21 -34 0
1 22 47 0
-1 -22 -47 0
2 9 19 0
-2 -9 -19 0
2 20 22 0
-2 -20 -22 0
2 21 35 0
-2 -21 -35 0
2 22 48 0
-2 -22 -48 0
3 10 19 0
-3 -10 -19 0
3 20 23 0
-3 -20 -23 0
3 21 36 0
-3 -21 -36 0
4 11 19 0
-4 -11 -19 0
4 20 24 0
-4 -20 -24 0
4 21 37 0
-4 -21 -37 0
5 12 19 0
-5 -12 -19 0
5 20 25 0
-5 -20 -25 0
5 21 38 0
-5 -21 -38 0
6 13 19 0
-6 -13 -19 0
6 20 26 0
-6 -20 -26 0
6 21 39 0
-6 -21 -39 0
1 7 18 0
-1 -7 -18 0
7 14 19 0
-7 -14 -19 0
7 20 27 0
-7 -20 -27 0
7 21 40 0
-7 -21 -40 0
2 8 18 0
-2 -8 -18 0
8 15 19 0
-8 -15 -19 0
8 20 28 0
-8 -20 -28 0
8 21 41 0
-8 -21 -41 0
3 9 18 0
-3 -9 -18 0
9 16 19 0
-9 -16 -19 0
9 20 29 0
-9 -20 -29 0
9 21 42 0
-9 -21 -42 0
4 10 18 0
-4 -10 -18 0
10 17 19 0
-10 -17 -19 0
10 20 30 0
-10 -20 -30 0
10 21 43 0
-10 -21 -43 0
5 11 18 0
-5 -11 -18 0
11 18 19 0
-11 -18 -19 0
11 20 31 0
-11 -20 -31 0
11 21 44 0
-11 -21 -44 0
6 12 18 0
-6 -12 -18 0
12 19 0
-12 -19 0
12 20 32 0
-12 -20 -32 0
12 21 45 0
-12 -21 -45 0
7 13 18 0
-7 -13 -18 0
13 19 20 0
-13 -19 -20 0
13 20 33 0
-13 -20 -33 0
13 21 46 0
-13 -21 -46 0
8 14 18 0
-8 -14 -18 0
14 19 21 0
-14 -19 -21 0
14 20 34 0
-14 -20 -34 0
14 21 47 0
-14 -21 -47 0
9 15 18 0
-9 -15 -18 0
15 19 22 0
-15 -19 -22 0
15 20 35 0
-15 -20 -35 0
15 21 48 0
-15 -21 -48 0
10 16 18 0
-10 -16 -18 0
16 19 23 0
-16 -19 -23 0
16 20 36 0
-16 -20 -36 0
11 17 18 0
-11 -17 -18 0
17 19 24 0
-17 -19 -24 0
17 20 37 0
-17 -20 -37 0
12 18 0
-12 -18 0
18 19 25 0
-18 -19 -25 0
18 20 38 0
-18 -20 -38 0
13 18 19 0
-13 -18 -19 0
19 26 0
-19 -26 0
19 20 39 0
-19 -20 -39 0
1 17 20 0
-1 -17 -20 0
14 18 20 0
-14 -18 -20 0
19 20 27 0
-19 -20 -27 0
20 40 0
-20 -40 0
2 17 21 0
-2 -17 -21 0
15 18 21 0
-15 -18 -21 0
19 21 28 0
-19 -21 -28 0
20 21 41 0
-20 -21 -41 0
3 17 22 0
-3 -17 -22 0
16 18 22 0
-16 -18 -22 0
19 22 29 0
-19 -22 -29 0
20 22 42 0
-20 -22 -42 0
4 17 23 0
-4 -17 -23 0
17 18 23 0
-17 -18 -23 0
19 23 30 0
-19 -23 -30 0
20 23 43 0
-20 -23 -43 0
5 17 24 0
-5 -17 -24 0
18 24 0
-18 -24 0
19 24 31 0
-19 -24 -31 0
20 24 44 0
-20 -24 -44 0
6 17 25 0
-6 -17 -25 0
19 25 32 0
-19 -25 -32 0
20 25 45 0
-20 -25 -45 0
7 17 26 0
-7 -17 -26 0
18 20 26 0
-18 -20 -26 0
19 26 33 0
-19 -26 -33 0
20 26 46 0
-20 -26 -46 0
8 17 27 0
-8 -17 -27 0
18 21 27 0
-18 -21 -27 0
19 27 34 0
-19 -27 -34 0
20 27 47 0
-20 -27 -47 0
9 17 28 0
-9 -17 -28 0
18 22 28 0
-18 -22 -28 0
19 28 35 0
-19 -28 -35 0
20 28 48 0
-20 -28 -48 0
10 17 29 0
-10 -17 -29 0
18 23 29 0
-18 -23 -29 0
19 29 36 0
-19 -29 -36 0
11 17 30 0
-11 -17 -30 0
18 24 30 0
-18 -24 -30 0
19 30 37 0
-19 -30 -37 0
12 17 31 0
-12 -17 -31 0
18 25 31 0
-18 -25 -31 0
19 31 38 0
-19 -31 -38 0
13 17 32 0
-13 -17 -32 0
18 26 32 0
-18 -26 -32 0
19 32 39 0
-19 -32 -39 0
1 16 33 0
-1 -16 -33 0
14 17 33 0
-14 -17 -33 0
18 27 33 0
-18 -27 -33 0
19 33 40 0
-19 -33 -40 0
2 16 34 0
-2 -16 -34 0
15 17 34 0
-15 -17 -34 0
18 28 34 0
-18 -28 -34 0
19 34 41 0
-19 -34 -41 0
3 16 35 0
-3 -16 -35 0
16 17 35 0
-16 -17 -35 0
18 29 35 0
-18 -29 -35 0
19 35 42 0
-19 -35 -42 0
4 16 36 0
-4 -16 -36 0
17 36 0
-17 -36 0
18 30 36 0
-18 -30 -36 0
19 36 43 0
-19 -36 -43 0
5 16 37 0
-5 -16 -37 0
17 18 37 0
-17 -18 -37 0
18 31 37 0
-18 -31 -37 0
19 37 44 0
-19 -37 -44 0
6 16 38 0
-6 -16 -38 0
17 19 38 0
-17 -19 -38 0
18 32 38 0
-18 -32 -38 0
19 38 45 0
-19 -38 -45 0
7 16 39 0
-7 -16 -39 0
17 20 39 0
-17 -20 -39 0
18 33 39 0
-18 -33 -39 0
19 39 46 0
-19 -39 -46 0
8 16 40 0
-8 -16 -40 0
17 21 40 0
-17 -21 -40 0
18 34 40 0
-18 -34 -40 0
19 40 47 0
-19 -40 -47 0
9 16 41 0
-9 -16 -41 0
17 22 41 0
-17 -22 -41 0
18 35 41 0
-18 -35 -41 0
19 41 48 0
-19 -41 -48 0
10 16 42 0
-10 -16 -42 0
17 23 42 0
-17 -23 -42 0
18 36 42 0
-18 -36 -42 0
11 16 43 0
-11 -16 -43 0
17 24 43 0
-17 -24 -43 0
18 37 43 0
-18 -37 -43 0
12 16 44 0
-12 -16 -44 0
17 25 44 0
-17 -25 -44 0
18 38 44 0
-18 -38 -44 0
13 16 45 0
-13 -16 -45 0
17 26 45 0
-17 -26 -45 0
18 39 45 0
-18 -39 -45 0
1 15 46 0
-1 -15 -46 0
14 16 46 0
-14 -16 -46 0
17 27 46 0
-17 -27 -46 0
18 40 46 0
-18 -40 -46 0
2 15 47 0
-2 -15 -47 0
15 16 47 0
-15 -16 -47 0
17 28 47 0
-17 -28 -47 0
18 41 47 0
-18 -41 -47 0
3 15 48 0
-3 -15 -48 0
16 48 0
-16 -48 0
17 29 48 0
-17 -29 -48 0
18 42 48 0
-18 -42 -48 0
