certificates/rado_a13_c240_N48.drat
18 -44 -45 -47 16 0
-18 -46 -48 0
-45 -25 1 -12 0
-46 -47 -48 0
20 21 -47 16 0
-20 -13 0
d -20 -33 -13 0
-47 -48 0
d -46 -47 -48 0
-15 -48 0
d -15 -21 -48 0
-48 0
16 0
45 21 0
d 12 45 21 0
46 21 0
d 13 46 21 0
47 21 0
d 14 47 21 0
21 0
19 47 0
47 46 0
46 0
-14 0
-13 0
-3 0
15 0
-18 0
-47 0
-1 0
12 0
24 0
42 0
41 0
19 0
8 0
20 0
7 0
9 0
22 0
0
